
Gurobi 8.1.1 (win64) logging started 11/24/19 22:55:15

Changed value of parameter LogFile to logs/full/rlt/full-05-30-1.log
   Prev: gurobi.log  Default: 
Changed value of parameter LogToConsole to 0
   Prev: 1  Min: 0  Max: 1  Default: 1
Changed value of parameter TimeLimit to 3600.0
   Prev: 1e+100  Min: 0.0  Max: 1e+100  Default: 1e+100
Optimize a model with 161877 rows, 54285 columns and 380349 nonzeros
Variable types: 0 continuous, 54285 integer (329 binary)
Coefficient statistics:
  Matrix range     [1e+00, 1e+00]
  Objective range  [1e+00, 1e+00]
  Bounds range     [1e+00, 1e+00]
  RHS range        [1e+00, 2e+00]
Presolve time: 2.04s
Presolved: 161877 rows, 54285 columns, 380349 nonzeros
Variable types: 0 continuous, 54285 integer (54285 binary)
Found heuristic solution: objective 10.0000000
Found heuristic solution: objective 6.0000000

Root simplex log...

Iteration    Objective       Primal Inf.    Dual Inf.      Time
    3386    1.5000091e+00   1.820000e+02   0.000000e+00      5s
    7450    2.1538499e+00   7.538462e+00   0.000000e+00     10s
    9138    2.1538462e+00   0.000000e+00   0.000000e+00     12s

Root relaxation: objective 2.153846e+00, 9138 iterations, 9.81 seconds
Total elapsed time = 18.74s

    Nodes    |    Current Node    |     Objective Bounds      |     Work
 Expl Unexpl |  Obj  Depth IntInf | Incumbent    BestBd   Gap | It/Node Time

     0     0    2.15385    0  648    6.00000    2.15385  64.1%     -   27s
H    0     0                       5.0000000    2.15385  56.9%     -   27s
     0     0    2.15385    0 1571    5.00000    2.15385  56.9%     -   65s
     0     0    2.19481    0 2415    5.00000    2.19481  56.1%     -  128s
     0     0    2.19481    0 2450    5.00000    2.19481  56.1%     -  146s
     0     0    2.22116    0 1276    5.00000    2.22116  55.6%     -  150s
     0     0    2.22451    0 1451    5.00000    2.22451  55.5%     -  238s
     0     0    2.22516    0 1399    5.00000    2.22516  55.5%     -  241s
     0     0    2.22634    0 1330    5.00000    2.22634  55.5%     -  243s
     0     0    2.22634    0 1334    5.00000    2.22634  55.5%     -  245s
     0     0    2.22758    0 1401    5.00000    2.22758  55.4%     -  247s
     0     0    2.22764    0 1373    5.00000    2.22764  55.4%     -  250s
     0     0    2.22844    0 1368    5.00000    2.22844  55.4%     -  252s
     0     0    2.22851    0 1874    5.00000    2.22851  55.4%     -  254s
     0     0    2.22906    0 1800    5.00000    2.22906  55.4%     -  257s
     0     0    2.22908    0 1832    5.00000    2.22908  55.4%     -  259s
     0     0    2.23081    0 1842    5.00000    2.23081  55.4%     -  264s
     0     0    2.23092    0 1872    5.00000    2.23092  55.4%     -  267s
     0     0    2.23229    0 1895    5.00000    2.23229  55.4%     -  271s
     0     0    2.23234    0 1894    5.00000    2.23234  55.4%     -  274s
     0     0    2.23351    0 1850    5.00000    2.23351  55.3%     -  278s
     0     0    2.23358    0 1856    5.00000    2.23358  55.3%     -  283s
     0     0    2.23397    0 1830    5.00000    2.23397  55.3%     -  286s
     0     0    2.23401    0 1828    5.00000    2.23401  55.3%     -  302s
     0     0    2.23458    0 1888    5.00000    2.23458  55.3%     -  307s
     0     0    2.23468    0 1857    5.00000    2.23468  55.3%     -  313s
     0     0    2.23566    0 1838    5.00000    2.23566  55.3%     -  319s
     0     0    2.23569    0 1822    5.00000    2.23569  55.3%     -  337s
     0     0    2.23641    0 1748    5.00000    2.23641  55.3%     -  342s
     0     0    2.23644    0 1761    5.00000    2.23644  55.3%     -  346s
     0     0    2.23713    0 1731    5.00000    2.23713  55.3%     -  352s
     0     0    2.23715    0 1740    5.00000    2.23715  55.3%     -  357s
     0     0    2.23798    0 1760    5.00000    2.23798  55.2%     -  363s
     0     0    2.23799    0 1756    5.00000    2.23799  55.2%     -  434s
     0     0    2.23864    0 1744    5.00000    2.23864  55.2%     -  440s
     0     0    2.23866    0 1759    5.00000    2.23866  55.2%     -  446s
     0     0    2.23925    0 1752    5.00000    2.23925  55.2%     -  452s
     0     0    2.23928    0 1738    5.00000    2.23928  55.2%     -  458s
     0     0    2.23975    0 1663    5.00000    2.23975  55.2%     -  463s
     0     0    2.23977    0 1656    5.00000    2.23977  55.2%     -  468s
     0     0    2.24000    0 1763    5.00000    2.24000  55.2%     -  472s
     0     0    2.24000    0 1748    5.00000    2.24000  55.2%     -  478s
     0     0    2.24015    0 1676    5.00000    2.24015  55.2%     -  481s
     0     0    2.24015    0 1675    5.00000    2.24015  55.2%     -  485s
     0     0    2.24050    0 1731    5.00000    2.24050  55.2%     -  490s
     0     0    2.24051    0 1737    5.00000    2.24051  55.2%     -  514s
     0     0    2.24109    0 1794    5.00000    2.24109  55.2%     -  521s
     0     0    2.24111    0 1785    5.00000    2.24111  55.2%     -  527s
     0     0    2.24148    0 1807    5.00000    2.24148  55.2%     -  534s
     0     0    2.24148    0 1803    5.00000    2.24148  55.2%     -  540s
     0     0    2.24170    0 1685    5.00000    2.24170  55.2%     -  545s
     0     0    2.24170    0 1690    5.00000    2.24170  55.2%     -  551s
     0     0    2.24183    0 1707    5.00000    2.24183  55.2%     -  555s
     0     0    2.24184    0 1746    5.00000    2.24184  55.2%     -  665s
     0     0    2.24202    0 1784    5.00000    2.24202  55.2%     -  671s
     0     0    2.24203    0 1746    5.00000    2.24203  55.2%     -  678s
     0     0    2.24217    0 1746    5.00000    2.24217  55.2%     -  684s
     0     0    2.24217    0 1744    5.00000    2.24217  55.2%     -  691s
     0     0    2.24231    0 1719    5.00000    2.24231  55.2%     -  696s
     0     0    2.24231    0 1693    5.00000    2.24231  55.2%     -  697s
     0     2    2.24231    0 1690    5.00000    2.24231  55.2%     - 2840s
     1     4    2.24632    1 1435    5.00000    2.24233  55.2%  5914 2862s
     3     6    2.25005    2 1673    5.00000    2.24658  55.1%  7304 2874s
     5     8    2.25504    3 1488    5.00000    2.24658  55.1%  5479 2883s
     7     8    2.27027    4 1552    5.00000    2.24658  55.1%  4950 2895s
     9    10    2.27419    5 1400    5.00000    2.24658  55.1%  4491 2901s
    11    12    2.28937    6 1029    5.00000    2.24658  55.1%  4450 2928s
    13    14    2.29481    7 1252    5.00000    2.24658  55.1%  4042 2931s
    16    17    2.31647    9  848    5.00000    2.24658  55.1%  3481 2937s
    19    20    2.33267   11  751    5.00000    2.24658  55.1%  3082 2940s
    23    24    2.35745   13  977    5.00000    2.24658  55.1%  2661 2945s
    27    28    2.38152   15 1188    5.00000    2.24658  55.1%  2365 3137s
    29    30    2.39370   16  973    5.00000    2.24658  55.1%  2272 3141s
    32    33    2.40703   17  833    5.00000    2.24658  55.1%  2148 3146s
    37    38    2.42852   20  883    5.00000    2.24658  55.1%  1925 3152s
    44    45    2.45439   24  749    5.00000    2.24658  55.1%  1710 3156s
    52    53    2.49380   28  941    5.00000    2.24658  55.1%  1493 3325s
    59    60    2.52286   32  891    5.00000    2.24658  55.1%  1357 3331s
    67    68    2.58162   35  921    5.00000    2.24658  55.1%  1231 3337s
    80    81    2.70210   41  809    5.00000    2.24658  55.1%  1080 3342s
    89    90    2.81189   45  966    5.00000    2.24658  55.1%  1012 3348s
    96    97    2.92222   48  788    5.00000    2.24658  55.1%   960 3353s
   105   106    3.04981   53  681    5.00000    2.24658  55.1%   905 3359s
   118   119    3.20544   59  591    5.00000    2.24658  55.1%   834 3365s
   127   128    3.43635   64  509    5.00000    2.24658  55.1%   797 3371s
   140   138    3.80365   72  378    5.00000    2.25021  55.0%   743 3385s
   156   153    3.09851    3 2482    5.00000    2.25021  55.0%   757 3392s
   169   161    3.15385    5 1429    5.00000    2.25021  55.0%   720 3407s
   181   173    3.15454    8 1379    5.00000    2.25021  55.0%   745 3414s
   187   178    3.16447   12 1315    5.00000    2.25021  55.0%   755 3442s
   194   184    3.19197   18 1190    5.00000    2.25021  55.0%   813 3449s
   203   193    3.23121   26 1388    5.00000    2.25021  55.0%   799 3459s
   214   204    3.27314   35 1540    5.00000    2.25021  55.0%   778 3468s
   223   213    3.32005   42 1378    5.00000    2.25021  55.0%   764 3477s
   235   225    3.40972   52 1202    5.00000    2.25021  55.0%   745 3487s
   243   233    3.48696   58 1509    5.00000    2.25021  55.0%   735 3498s
   253   243    3.58434   66  831    5.00000    2.25021  55.0%   721 3507s

Cutting planes:
  Gomory: 2
  MIR: 3
  Zero half: 101

Explored 266 nodes (253252 simplex iterations) in 3600.12 seconds
Thread count was 4 (of 4 available processors)

Solution count 3: 5 6 10 

Time limit reached
Best objective 5.000000000000e+00, best bound 3.000000000000e+00, gap 40.0000%
